9176
0 1 0 1 0 1 1 0 0 1 0 0 1 0 0 1 0 0 1 0 
5 5 5 5 5 5 5 5 1 1 1 6 1 6 6 6 6 12 12 12 12 3 3 12 3 9 9 9 9 9 9 9 9 15 18 18 18 18 18 18 18 18 18 18 5 5 6 12 3 15 15 3 6 18 5 15 3 3 1 6 18 15 15 15 3 3 15 5 6 5 18 18 6 3 3 15 3 6 6 15 18 3 3 15 15 3 3 6 15 3 15 15 18 18 15 18 3 6 3 5 

Total Run Time: 123052 ms.
